(set-logic HORN)
(declare-fun inv ((_ BitVec 32) (_ BitVec 32) ) Bool)
(assert (forall ((x (_ BitVec 32)) (y (_ BitVec 32))) 
       (=> ( and ( = x (_ bv0 32) ) ( = y (_ bv0 32) ) ) (inv x y))))
(assert (forall ((x (_ BitVec 32)) (y (_ BitVec 32)) (x! (_ BitVec 32)) (y! (_ BitVec 32))) 
       (=> (and (inv x y) ( or ( and ( = x! ( bvadd x (_ bv1 32) ) ) ( = y! ( bvadd y (_ bv100 32) ) ) ) ( and ( bvsge x (_ bv4 32) ) ( = x! ( bvadd x (_ bv1 32) ) ) ( = y! ( bvadd y (_ bv1 32) ) ) ) ( and ( bvslt x (_ bv0 32) ) ( = x! x ) ( = y! ( bvsub y (_ bv1 32) ) ) ) ( and ( = x! x ) ( = y! y ) ) )) (inv x! y!))))
(assert (forall ((x (_ BitVec 32)) (y (_ BitVec 32))) 
       (=> (inv x y) ( or ( bvslt x (_ bv4 32) ) ( bvsgt y (_ bv2 32) ) ))))
(check-sat)
